p td 50 100
5 1
9 5
10 6
10 1
10 3
11 1
11 2
12 4
14 11
15 3
15 14
15 11
16 10
17 3
19 5
20 4
21 7
21 10
21 17
22 7
25 10
25 19
27 6
27 15
27 3
27 16
27 1
27 23
27 21
28 21
28 7
29 8
29 25
29 10
29 4
29 5
30 4
30 16
30 28
31 11
31 25
32 2
32 23
33 5
33 23
33 11
34 20
34 13
34 14
34 17
34 2
35 1
36 12
36 31
36 35
37 25
37 14
38 9
38 12
39 5
39 32
39 37
39 11
40 1
40 33
40 22
40 29
41 22
41 18
41 2
42 29
42 37
43 29
44 37
44 27
44 35
44 10
44 7
44 30
44 31
45 24
45 39
46 17
46 27
47 37
47 41
47 27
47 45
47 12
48 42
48 1
48 39
48 45
49 8
49 43
49 38
49 44
49 22
50 46
50 9
